NAME: tsp35_8
COMMENT: 35-tsp problem (Padberg/Rinaldi)
TYPE: TSP
DIMENSION: 35
EDGE_WEIGHT_TYPE : EUC_2D
NODE_COORD_SECTION
1 10 39
2 15 26
3 30 32
4 7 4
5 4 1
6 14 35
7 15 7
8 26 19
9 6 14
10 33 12
11 40 33
12 7 19
13 18 13
14 18 17
15 12 0
16 16 5
17 31 29
18 25 33
19 6 0
20 11 6
21 13 9
22 19 34
23 35 34
24 37 9
25 16 15
26 5 16
27 8 15
28 12 18
29 20 30
30 29 2
31 22 37
32 7 9
33 31 13
34 0 11
35 31 13
